Sat 19 May 19:17:40 CEST 2018
CPXPARAM_TimeLimit                               45
CPXPARAM_Threads                                 1
CPXPARAM_MIP_Strategy_CallbackReducedLP          0
Tried aggregator 3 times.
MIP Presolve eliminated 3232 rows and 2874 columns.
MIP Presolve modified 3078 coefficients.
Aggregator did 6879 substitutions.
Reduced MIP has 11670 rows, 10738 columns, and 28084 nonzeros.
Reduced MIP has 9338 binaries, 14 generals, 0 SOSs, and 2024 indicators.
Presolve time = 0.09 sec. (204.87 ticks)
Probing time = 0.17 sec. (118.26 ticks)
Tried aggregator 3 times.
Aggregator did 5093 substitutions.
Reduced MIP has 6577 rows, 5645 columns, and 17898 nonzeros.
Reduced MIP has 4245 binaries, 1400 generals, 0 SOSs, and 2024 indicators.
Presolve time = 0.03 sec. (43.89 ticks)
Probing time = 0.13 sec. (102.65 ticks)
Tried aggregator 1 time.
Reduced MIP has 6577 rows, 5645 columns, and 17898 nonzeros.
Reduced MIP has 4245 binaries, 1400 generals, 0 SOSs, and 2024 indicators.
Presolve time = 0.02 sec. (17.24 ticks)
Probing time = 0.01 sec. (5.26 ticks)
Clique table members: 146004.
MIP emphasis: balance optimality and feasibility.
MIP search method: dynamic search.
Parallel mode: none, using 1 thread.
Root relaxation solution time = 0.02 sec. (24.38 ticks)

        Nodes                                         Cuts/
   Node  Left     Objective  IInf  Best Integer    Best Bound    ItCnt     Gap

      0     0        0.0000  2720                      0.0000      321         
      0     0        0.0000  2402               Cliques: 1744      676         
      0     0        0.0000  2211               Cliques: 1744     1133         
      0     0        0.0000  2231               Cliques: 1744     1348         
      0     0        0.0000  2047               Cliques: 1744     1545         
      0     0        0.0000  2066               Cliques: 1744     1789         
      0     2        0.0000  2066                      0.0000     1789         
Elapsed time = 17.48 sec. (19931.95 ticks, tree = 0.01 MB, solutions = 0)
      3     5        0.0000   686                      0.0000     2600         
     10    12        0.0000   678                      0.0000     2858         
     20    22        2.0000   659                      0.0000     3412         
     30    32        0.0000   641                      0.0000     3544         
     43    45        0.0000   615                      0.0000     3801         
     62    64        0.0000   583                      0.0000     3922         
     97    99        0.0000   525                      0.0000     4032         
    130   132        0.0000   483                      0.0000     4032         
    150   152        0.0000   454                      0.0000     4032         
    162   164        0.0000   442                      0.0000     5211         
Elapsed time = 21.11 sec. (23766.80 ticks, tree = 6.36 MB, solutions = 0)
    197   199        0.0000   928                      0.0000     6999         
    203   205       13.0000   557                      0.0000     9190         
    238   240        0.0000   311                      0.0000    11232         
    242   244        0.0000   299                      0.0000    12563         
    275   277        0.0000   306                      0.0000    16758         
    330   332        6.0000   354                      0.0000    22459         
    380   382        0.0000   356                      0.0000    28697         
    439   441        0.0000   365                      0.0000    34668         
    481   483       16.0000   268                      0.0000    39113         
*   560+  450                           23.0000        0.0000           100.00%
    597   486       21.0000   134       23.0000        0.0000    39439  100.00%
Elapsed time = 32.64 sec. (35602.47 ticks, tree = 9.75 MB, solutions = 1)
*   630+  410                           21.0000        0.0000           100.00%
    700   479       20.0000    44       21.0000        0.0000    41377  100.00%
*   720+  384                           20.0000        0.0000           100.00%
*   800+  398                           18.0000        0.0000           100.00%
    801   399       15.0000   119       18.0000        0.0000    43086  100.00%
*   832   386      integral     0       17.0000        0.0000    43635  100.00%
*   876   366      integral     0       16.0000        0.0000    44817  100.00%
    885   369       13.0000   243       16.0000        0.0000    46011  100.00%
*   940+  324                           15.0000        0.0000           100.00%
    947   328    infeasible             15.0000        0.0000    49443  100.00%
    963   320        0.0000   468       15.0000        0.0000    52353  100.00%
   1002   359       14.0000   303       15.0000        0.0000    53470  100.00%
   1011   368       14.0000   339       15.0000        0.0000    55928  100.00%
   1051   408        0.0000   349       15.0000        0.0000    57456  100.00%
*  1053+  338                           14.0000        0.0000           100.00%
*  1054+  314                           12.0000        0.0000           100.00%
   1054   316        0.0000   339       12.0000        0.0000    59407  100.00%
*  1100+  316                           11.0000        0.0000           100.00%
   1101   316        0.0000   458       11.0000        0.0000    62013  100.00%
Elapsed time = 43.60 sec. (47231.32 ticks, tree = 7.51 MB, solutions = 10)
   1140   351        0.0000   178       11.0000        0.0000    65939  100.00%

Root node processing (before b&c):
  Real time             =   17.46 sec. (19918.93 ticks)
Sequential b&c:
  Real time             =   27.64 sec. (29474.37 ticks)
                          ------------
Total (root+branch&cut) =   45.11 sec. (49393.30 ticks)
   | W
 L | 0  1  2  3  4 
------------------
 0 | .  4  5  . 10 
 1 | .  2  .  1 10 
 2 | .  . 12 12 12 
 3 | 6  7 12 12 12 
 4 | 6  7 12 12 12 
 5 | .  .  .  .  9 
 6 | .  .  .  .  9 
 7 | .  .  .  .  . 
 8 | .  . 13  8  . 
 9 | . 11 13  8  . 
10 | 3 11 13  .  . 
11 | .  .  .  .  . 
12 | .  .  .  .  . 
13 | .  .  .  .  . 
14 | .  .  .  .  . 
15 | .  .  .  .  . 
16 | .  .  .  .  . 
17 | .  .  .  .  . 
18 | .  .  .  .  . 
19 | .  .  .  .  . 
20 | .  .  .  .  . 
21 | .  .  .  .  . 
22 | .  .  .  .  . 

Boxes' corners:       (w,l)
    Box  1 is at 
        top left     (3,1)
        bottom right (3,1)

    Box  2 is at 
        top left     (1,1)
        bottom right (1,1)

    Box  3 is at 
        top left     (0,10)
        bottom right (0,10)

    Box  4 is at 
        top left     (1,0)
        bottom right (1,0)

    Box  5 is at 
        top left     (2,0)
        bottom right (2,0)

    Box  6 is at 
        top left     (0,3)
        bottom right (0,4)

    Box  7 is at 
        top left     (1,3)
        bottom right (1,4)

    Box  8 is at 
        top left     (3,8)
        bottom right (3,9)

    Box  9 is at 
        top left     (4,5)
        bottom right (4,6)

    Box 10 is at 
        top left     (4,0)
        bottom right (4,1)

    Box 11 is at 
        top left     (1,9)
        bottom right (1,10)

    Box 12 is at 
        top left     (2,2)
        bottom right (4,4)

    Box 13 is at 
        top left     (2,8)
        bottom right (2,10)

    Roll length used: 11
In 45.16 seconds
